GLPSOL--GLPK LP/MIP Solver 5.0
Parameter(s) specified in the command line:
 --lp ../modeles/2_74.lp --log 2_74.log
Reading problem data from '../modeles/2_74.lp'...
157 rows, 300 columns, 1042 non-zeros
148 integer variables, all of which are binary
465 lines were read
GLPK Integer Optimizer 5.0
157 rows, 300 columns, 1042 non-zeros
148 integer variables, all of which are binary
Preprocessing...
148 constraint coefficient(s) were reduced
157 rows, 298 columns, 1040 non-zeros
148 integer variables, all of which are binary
Scaling...
 A: min|aij| =  2.922e-03  max|aij| =  4.000e+00  ratio =  1.369e+03
GM: min|aij| =  1.644e-01  max|aij| =  6.083e+00  ratio =  3.700e+01
EQ: min|aij| =  2.703e-02  max|aij| =  1.000e+00  ratio =  3.700e+01
2N: min|aij| =  1.562e-02  max|aij| =  1.689e+00  ratio =  1.081e+02
Constructing initial basis...
Size of triangular part is 157
Solving LP relaxation...
GLPK Simplex Optimizer 5.0
157 rows, 298 columns, 1040 non-zeros
      0: obj =   4.000000000e+00 inf =   5.500e+01 (5)
     17: obj =   3.514452982e-01 inf =   0.000e+00 (0)
*    64: obj =  -1.413913914e+00 inf =   1.109e-15 (0)
OPTIMAL LP SOLUTION FOUND
Integer optimization begins...
Long-step dual simplex will be used
+    64: mip =     not found yet >=              -inf        (1; 0)
+    68: >>>>>  -1.413913914e+00 >=  -1.413913914e+00 < 0.1% (5; 0)
+    68: mip =  -1.413913914e+00 >=     tree is empty   0.0% (0; 9)
INTEGER OPTIMAL SOLUTION FOUND
Time used:   0.0 secs
Memory used: 0.5 Mb (493364 bytes)
